(set-logic QF_S)
(declare-fun var0 () String)
(declare-fun var1 () String)
(declare-fun var2 () String)
(declare-fun var3 () String)
(declare-fun var4 () Int)
(declare-fun var5 () Int)
(declare-fun var6 () Int)
(declare-fun var7 () Int)
(declare-fun var8 () Bool)
(assert (<= (str.len var0) (str.len (str.replace var1 var2 var3))))
(assert (>= 157 var4))
(assert (> (str.indexof (str.at "Rn=iDcGxms" var5) (str.substr var3 var6 var7) (str.len var1)) (str.len var0)))
(assert (not var8))
(check-sat)